(set-logic HORN)
(set-info :source |
    Benchmark: C_VC
    Output by Princess (http://www.philipp.ruemmer.org/princess.shtml)
|)
(set-info :status sat)
;===============================================================================
; Encoding of Heap sorts and operations
;-------------------------------------------------------------------------------
(define-sort Addr() Int)
(declare-datatypes ((AddrRange 0))
                   (((AddrRange (AddrRangeStart Addr) (AddrRangeSize Int)))))

(declare-datatypes ((HeapObject 0) (TSLL 0))
                   (((O_Int (getInt Int)) (O_UInt (getUInt Int)) (O_Addr (getAddr Addr)) (O_AddrRange (getAddrRange AddrRange)) (O_TSLL (getTSLL TSLL)) (defObj))
                   ((TSLL (|TSLL::next| Addr) (|TSLL::data| Int)))))
(declare-datatypes ((BatchAllocResHeap 0) (AllocResHeap 0) (Heap 0))
                   (((BatchAllocResHeap   (newBatchHeap Heap) (newAddrRange AddrRange)))
                   ((AllocResHeap   (newHeap Heap) (newAddr Addr)))
                    ((HeapCtor (HeapSize Int)
                               (HeapContents (Array Addr HeapObject))))))
(define-fun nullAddr  () Addr 0)
(define-fun valid     ((h Heap) (p Addr)) Bool
  (and (>= (HeapSize h) p) (> p 0)))
(define-fun emptyHeap () Heap (
  HeapCtor 0 (( as const (Array Addr HeapObject)) defObj)))
(define-fun read ((h Heap) (p Addr)) HeapObject
  (ite (valid h p)
       (select (HeapContents h) p)
       defObj))
(define-fun write ((h Heap) (p Addr) (o HeapObject)) Heap
  (ite (valid h p)
       (HeapCtor (HeapSize h) (store (HeapContents h) p o))
       h))
(define-fun alloc   ((h Heap) (o HeapObject)) AllocResHeap
  (AllocResHeap (HeapCtor (+ 1 (HeapSize h))
                    (store (HeapContents h) (+ 1 (HeapSize h)) o))
          (+ 1 (HeapSize h))))

;===============================================================================
(declare-fun inv_main1001_2 (Heap Addr Addr Int) Bool)
(declare-fun inv_main1024_11 (Heap Addr Addr Int) Bool)
(declare-fun inv_main1029_12 (Heap Addr Addr Int) Bool)
(declare-fun inv_main1036_12 (Heap Addr Addr Int) Bool)
(declare-fun inv_main1055_12 (Heap Addr Addr Int Addr) Bool)
(declare-fun inv_main1056_12 (Heap Addr Addr Int Addr) Bool)
(declare-fun inv_main1062_12 (Heap Addr Addr Int Addr) Bool)
(declare-fun inv_main1063_12 (Heap Addr Addr Int Addr) Bool)
(declare-fun inv_main996_2 (Heap) Bool)
(declare-fun inv_main_15 (Heap Addr Addr Int) Bool)
(declare-fun inv_main_16 (Heap Addr Addr Int) Bool)
(declare-fun inv_main_33 (Heap Addr Addr Int Addr) Bool)
(declare-fun inv_main_34 (Heap Addr Addr Int Addr) Bool)
(declare-fun inv_main_52 (Heap Addr Addr Int Addr) Bool)
(assert (forall ((var0 Heap)) (or (not (= var0 emptyHeap)) (inv_main996_2 var0))))
(assert (forall ((var0 Int) (var1 Addr) (var2 Int) (var3 Addr) (var4 Addr) (var5 Heap) (var6 Int) (var7 Addr) (var8 Int) (var9 Int) (var10 Addr) (var11 Addr) (var12 Heap) (var13 Addr) (var14 Addr) (var15 Int) (var16 Addr) (var17 Addr) (var18 Addr) (var19 Addr) (var20 Heap) (var21 Heap) (var22 Int) (var23 Int) (var24 Addr) (var25 Int) (var26 Addr) (var27 Addr) (var28 Heap)) (or (not (and (inv_main_33 var28 var27 var26 var25 var24) (and (not (= var23 0)) (and (and (= var22 0) (and (and (and (and (and (= var21 var20) (= var19 var18)) (= var17 var16)) (= var23 var15)) (= var14 var13)) (= var22 (|TSLL::data| (getTSLL (read var20 var16)))))) (and (and (and (and (and (and (= var20 var12) (= var18 var11)) (= var16 var10)) (= var9 var8)) (= var13 var7)) (= var15 (|TSLL::data| (getTSLL (read var12 var10))))) (and (and (not (= var6 0)) (and (not (= var26 nullAddr)) (and (and (and (and (and (= var5 var28) (= var4 var27)) (= var3 var26)) (= var2 var25)) (= var1 var24)) (= var0 (|TSLL::data| (getTSLL (read var28 var26))))))) (and (and (and (and (and (= var12 var5) (= var11 var4)) (= var10 var3)) (= var8 var2)) (= var7 var1)) (or (and (not (= var0 1)) (= var6 1)) (and (= var0 1) (= var6 0)))))))))) (inv_main1056_12 var21 var19 var17 var23 var14))))
(assert (forall ((var0 Int) (var1 Addr) (var2 Addr) (var3 Heap) (var4 Addr) (var5 Int) (var6 Addr) (var7 Addr) (var8 Heap)) (or (not (and (inv_main_15 var8 var7 var6 var5) (and (= var4 nullAddr) (and (and (and (and (= var3 var8) (= var2 var7)) (= var1 var6)) (= var0 var5)) (= var4 (|TSLL::next| (getTSLL (read var8 var6)))))))) (inv_main_16 var3 var2 var1 var0))))
(assert (forall ((var0 Int) (var1 Addr) (var2 Addr) (var3 Heap) (var4 Int) (var5 Int) (var6 Addr) (var7 Addr) (var8 Heap) (var9 Int) (var10 Addr) (var11 Addr) (var12 Heap) (var13 Addr) (var14 Int) (var15 Int) (var16 Addr) (var17 Addr) (var18 Heap)) (or (not (and (inv_main_15 var18 var17 var16 var15) (and (and (= var14 0) (and (and (not (= var13 nullAddr)) (and (and (and (and (= var12 var18) (= var11 var17)) (= var10 var16)) (= var9 var15)) (= var13 (|TSLL::next| (getTSLL (read var18 var16)))))) (and (and (and (and (= var8 var12) (= var7 var11)) (= var6 var10)) (= var5 var9)) (= var4 (|TSLL::data| (getTSLL (read var12 (|TSLL::next| (getTSLL (read var12 var10)))))))))) (and (and (and (and (= var3 var8) (= var2 var7)) (= var1 var6)) (= var0 var5)) (or (and (= var4 0) (= var14 1)) (and (not (= var4 0)) (= var14 0))))))) (inv_main_16 var3 var2 var1 var0))))
(assert (forall ((var0 Addr) (var1 Int) (var2 Int) (var3 Addr) (var4 Addr) (var5 Addr) (var6 Heap) (var7 Int) (var8 Int) (var9 Addr) (var10 Addr) (var11 Addr) (var12 Addr) (var13 Heap) (var14 Heap) (var15 Int) (var16 Int) (var17 Addr) (var18 Addr) (var19 Heap)) (or (not (and (inv_main_16 var19 var18 var17 var16) (and (and (= var15 1) (and (and (and (and (= var14 var13) (= var12 var11)) (= var10 var9)) (= var8 var7)) (= var15 (|TSLL::data| (getTSLL (read var13 var9)))))) (and (and (and (and (and (= var13 var6) (= var11 var5)) (= var4 var3)) (= var7 var2)) (= var9 (|TSLL::next| (getTSLL (read var6 var3))))) (and (not (= var1 0)) (and (not (= var0 nullAddr)) (and (and (and (and (= var6 var19) (= var5 var18)) (= var3 var17)) (= var2 var16)) (= var0 (|TSLL::next| (getTSLL (read var19 var17))))))))))) (inv_main_16 var14 var12 var10 var8))))
(assert (forall ((var0 Int) (var1 Addr) (var2 Int) (var3 Addr) (var4 Addr) (var5 Heap) (var6 Int) (var7 Addr) (var8 Int) (var9 Int) (var10 Addr) (var11 Addr) (var12 Heap) (var13 Addr) (var14 Addr) (var15 Int) (var16 Int) (var17 Addr) (var18 Addr) (var19 Addr) (var20 Addr) (var21 Heap) (var22 Heap) (var23 Int) (var24 Addr) (var25 Int) (var26 Addr) (var27 Addr) (var28 Heap)) (or (not (and (inv_main_33 var28 var27 var26 var25 var24) (and (and (not (= var23 0)) (and (and (and (and (and (= var22 var21) (= var20 var19)) (= var18 var17)) (= var16 var15)) (= var14 var13)) (= var23 (|TSLL::data| (getTSLL (read var21 var17)))))) (and (and (and (and (and (and (= var21 var12) (= var19 var11)) (= var17 var10)) (= var9 var8)) (= var13 var7)) (= var15 (|TSLL::data| (getTSLL (read var12 var10))))) (and (and (not (= var6 0)) (and (not (= var26 nullAddr)) (and (and (and (and (and (= var5 var28) (= var4 var27)) (= var3 var26)) (= var2 var25)) (= var1 var24)) (= var0 (|TSLL::data| (getTSLL (read var28 var26))))))) (and (and (and (and (and (= var12 var5) (= var11 var4)) (= var10 var3)) (= var8 var2)) (= var7 var1)) (or (and (not (= var0 1)) (= var6 1)) (and (= var0 1) (= var6 0))))))))) (inv_main1055_12 var22 var20 var18 var16 var14))))
(assert (forall ((var0 Int) (var1 Int) (var2 Addr) (var3 Addr) (var4 Heap)) (or (not (and (inv_main1001_2 var4 var3 var2 var1) (and (= nullAddr var3) (and (= var0 0) (not (= var1 0)))))) (inv_main1024_11 var4 var3 var3 var1))))
(assert (forall ((var0 Addr) (var1 Int) (var2 Addr) (var3 Addr) (var4 Heap)) (or (not (and (inv_main_34 var4 var3 var2 var1 var0) (= var2 nullAddr))) (inv_main_52 var4 var3 var3 var1 var0))))
(assert (forall ((var0 Heap) (var1 Addr) (var2 Addr) (var3 Int) (var4 Addr) (var5 Addr) (var6 Heap) (var7 Addr) (var8 Int) (var9 Addr) (var10 Addr) (var11 Heap)) (or (not (and (inv_main_52 var11 var10 var9 var8 var7) (and (and (and (and (and (and (and (= var6 var11) (= var5 var9)) (= var4 var9)) (= var3 var8)) (= var2 var7)) (= var1 (|TSLL::next| (getTSLL (read var11 var9))))) (not (= var9 nullAddr))) (= var0 (write var6 var5 defObj))))) (inv_main_52 var0 var5 var1 var3 var2))))
(assert (forall ((var0 Int) (var1 Addr) (var2 Addr) (var3 Int) (var4 Addr) (var5 Addr) (var6 Addr) (var7 Addr) (var8 Heap) (var9 Heap) (var10 Int) (var11 Int) (var12 Addr) (var13 Int) (var14 Addr) (var15 Addr) (var16 Heap)) (or (not (and (inv_main_34 var16 var15 var14 var13 var12) (and (not (= var11 1)) (and (and (= var10 1) (and (and (and (and (and (= var9 var8) (= var7 var6)) (= var5 var4)) (= var11 var3)) (= var2 var1)) (= var10 (|TSLL::data| (getTSLL (read var8 var4)))))) (and (and (and (and (and (and (= var8 var16) (= var6 var15)) (= var4 var14)) (= var0 var13)) (= var1 var12)) (= var3 (|TSLL::data| (getTSLL (read var16 var14))))) (not (= var14 nullAddr))))))) (inv_main1063_12 var9 var7 var5 var11 var2))))
(assert (forall ((var0 Int) (var1 Int) (var2 Addr) (var3 Addr) (var4 Heap) (var5 Int) (var6 Addr) (var7 Addr) (var8 Heap) (var9 Addr) (var10 Int) (var11 Int) (var12 Int) (var13 Addr) (var14 Addr) (var15 Addr) (var16 Addr) (var17 Heap) (var18 Heap) (var19 Int) (var20 Int) (var21 Addr) (var22 Addr) (var23 Heap)) (or (not (and (inv_main_15 var23 var22 var21 var20) (and (and (not (= var19 0)) (and (and (and (and (= var18 var17) (= var16 var15)) (= var14 var13)) (= var12 var11)) (= var19 (|TSLL::data| (getTSLL (read var17 var13)))))) (and (and (not (= var10 0)) (and (and (not (= var9 nullAddr)) (and (and (and (and (= var8 var23) (= var7 var22)) (= var6 var21)) (= var5 var20)) (= var9 (|TSLL::next| (getTSLL (read var23 var21)))))) (and (and (and (and (= var4 var8) (= var3 var7)) (= var2 var6)) (= var1 var5)) (= var0 (|TSLL::data| (getTSLL (read var8 (|TSLL::next| (getTSLL (read var8 var6)))))))))) (and (and (and (and (= var17 var4) (= var15 var3)) (= var13 var2)) (= var11 var1)) (or (and (= var0 0) (= var10 1)) (and (not (= var0 0)) (= var10 0)))))))) (inv_main1029_12 var18 var16 var14 var12))))
(assert (forall ((var0 Addr) (var1 Int) (var2 Addr) (var3 Addr) (var4 Heap)) (or (not (and (inv_main_33 var4 var3 var2 var1 var0) (= var2 nullAddr))) (inv_main_34 var4 var3 var2 var1 var0))))
(assert (forall ((var0 Addr) (var1 Int) (var2 Addr) (var3 Addr) (var4 Heap) (var5 Int) (var6 Addr) (var7 Int) (var8 Addr) (var9 Addr) (var10 Heap) (var11 Int) (var12 Addr) (var13 Int) (var14 Addr) (var15 Addr) (var16 Heap)) (or (not (and (inv_main_33 var16 var15 var14 var13 var12) (and (and (= var11 0) (and (not (= var14 nullAddr)) (and (and (and (and (and (= var10 var16) (= var9 var15)) (= var8 var14)) (= var7 var13)) (= var6 var12)) (= var5 (|TSLL::data| (getTSLL (read var16 var14))))))) (and (and (and (and (and (= var4 var10) (= var3 var9)) (= var2 var8)) (= var1 var7)) (= var0 var6)) (or (and (not (= var5 1)) (= var11 1)) (and (= var5 1) (= var11 0))))))) (inv_main_34 var4 var3 var2 var1 var0))))
(assert (forall ((var0 Int) (var1 Addr) (var2 Int) (var3 Addr) (var4 Addr) (var5 Heap) (var6 Int) (var7 Addr) (var8 Addr) (var9 Addr) (var10 Int) (var11 Int) (var12 Addr) (var13 Addr) (var14 Addr) (var15 Addr) (var16 Heap) (var17 Heap) (var18 Addr) (var19 Int) (var20 Addr) (var21 Addr) (var22 Heap)) (or (not (and (inv_main_34 var22 var21 var20 var19 var18) (and (and (and (and (and (and (= var17 var16) (= var15 var14)) (= var13 var12)) (= var11 var10)) (= var9 var8)) (= var7 (|TSLL::next| (getTSLL (read var16 var12))))) (and (= var10 1) (and (and (= var6 1) (and (and (and (and (and (= var16 var5) (= var14 var4)) (= var12 var3)) (= var10 var2)) (= var8 var1)) (= var6 (|TSLL::data| (getTSLL (read var5 var3)))))) (and (and (and (and (and (and (= var5 var22) (= var4 var21)) (= var3 var20)) (= var0 var19)) (= var1 var18)) (= var2 (|TSLL::data| (getTSLL (read var22 var20))))) (not (= var20 nullAddr)))))))) (inv_main_34 var17 var15 var7 var11 var9))))
(assert (forall ((var0 Int) (var1 Heap) (var2 Int) (var3 Addr) (var4 Addr) (var5 Heap) (var6 Int) (var7 Addr) (var8 Int) (var9 Addr) (var10 Addr) (var11 TSLL) (var12 Heap) (var13 Addr) (var14 Int) (var15 Int) (var16 Addr) (var17 Addr) (var18 Addr) (var19 Addr) (var20 Heap) (var21 Heap) (var22 Int) (var23 Int) (var24 Addr) (var25 Addr) (var26 Heap)) (or (not (and (inv_main1001_2 var26 var25 var24 var23) (and (and (and (not (= var22 0)) (and (and (and (and (and (and (and (= var21 var20) (= var19 var18)) (= var17 var16)) (= var15 var14)) (= var13 (|TSLL::next| (getTSLL (read var20 var16))))) (and (and (and (and (and (= var12 (newHeap (alloc var26 (O_TSLL var11)))) (= var10 var25)) (= var9 var24)) (= var8 var23)) (= var7 (newAddr (alloc var26 (O_TSLL var11))))) (or (not (= var6 0)) (= var23 0)))) (and (and (and (= var20 (write var12 var9 (O_TSLL (TSLL var7 (|TSLL::data| (getTSLL (read var12 var9))))))) (= var18 var10)) (= var16 var9)) (= var14 var8))) (and (and (and (= var5 (write var21 var13 (O_TSLL (TSLL nullAddr (|TSLL::data| (getTSLL (read var21 var13))))))) (= var4 var19)) (= var3 var13)) (= var2 var15)))) (= var1 (write var5 var3 (O_TSLL (TSLL (|TSLL::next| (getTSLL (read var5 var3))) 1))))) (= var0 1)))) (inv_main1001_2 var1 var4 var3 var0))))
(assert (forall ((var0 Heap) (var1 Addr) (var2 Addr) (var3 Heap) (var4 Int) (var5 Addr) (var6 Int) (var7 Addr) (var8 Addr) (var9 TSLL) (var10 Heap) (var11 Addr) (var12 Int) (var13 Int) (var14 Addr) (var15 Addr) (var16 Addr) (var17 Addr) (var18 Heap) (var19 Heap) (var20 Int) (var21 Int) (var22 Int) (var23 Addr) (var24 Addr) (var25 Heap)) (or (not (and (inv_main1001_2 var25 var24 var23 var22) (and (and (not (= var21 0)) (and (= var20 0) (and (and (and (and (and (and (and (= var19 var18) (= var17 var16)) (= var15 var14)) (= var13 var12)) (= var11 (|TSLL::next| (getTSLL (read var18 var14))))) (and (and (and (and (and (= var10 (newHeap (alloc var25 (O_TSLL var9)))) (= var8 var24)) (= var7 var23)) (= var6 var22)) (= var5 (newAddr (alloc var25 (O_TSLL var9))))) (or (not (= var4 0)) (= var22 0)))) (and (and (and (= var18 (write var10 var7 (O_TSLL (TSLL var5 (|TSLL::data| (getTSLL (read var10 var7))))))) (= var16 var8)) (= var14 var7)) (= var12 var6))) (and (and (and (= var3 (write var19 var11 (O_TSLL (TSLL nullAddr (|TSLL::data| (getTSLL (read var19 var11))))))) (= var2 var17)) (= var1 var11)) (= var21 var13))))) (= var0 (write var3 var1 (O_TSLL (TSLL (|TSLL::next| (getTSLL (read var3 var1))) 1))))))) (inv_main1001_2 var0 var2 var1 var21))))
(assert (forall ((var0 Heap) (var1 Addr) (var2 Addr) (var3 Heap) (var4 Int) (var5 Addr) (var6 Int) (var7 Addr) (var8 Addr) (var9 TSLL) (var10 Heap) (var11 Addr) (var12 Int) (var13 Int) (var14 Addr) (var15 Addr) (var16 Addr) (var17 Addr) (var18 Heap) (var19 Heap) (var20 Int) (var21 Int) (var22 Int) (var23 Addr) (var24 Addr) (var25 Heap)) (or (not (and (inv_main1001_2 var25 var24 var23 var22) (and (and (= var21 0) (and (= var20 0) (and (and (and (and (and (and (and (= var19 var18) (= var17 var16)) (= var15 var14)) (= var13 var12)) (= var11 (|TSLL::next| (getTSLL (read var18 var14))))) (and (and (and (and (and (= var10 (newHeap (alloc var25 (O_TSLL var9)))) (= var8 var24)) (= var7 var23)) (= var6 var22)) (= var5 (newAddr (alloc var25 (O_TSLL var9))))) (or (not (= var4 0)) (= var22 0)))) (and (and (and (= var18 (write var10 var7 (O_TSLL (TSLL var5 (|TSLL::data| (getTSLL (read var10 var7))))))) (= var16 var8)) (= var14 var7)) (= var12 var6))) (and (and (and (= var3 (write var19 var11 (O_TSLL (TSLL nullAddr (|TSLL::data| (getTSLL (read var19 var11))))))) (= var2 var17)) (= var1 var11)) (= var21 var13))))) (= var0 (write var3 var1 (O_TSLL (TSLL (|TSLL::next| (getTSLL (read var3 var1))) 0))))))) (inv_main1001_2 var0 var2 var1 var21))))
(assert (forall ((var0 Int) (var1 Addr) (var2 Heap) (var3 Addr) (var4 Heap) (var5 Addr) (var6 TSLL) (var7 Heap) (var8 Heap)) (or (not (and (inv_main996_2 var8) (and (and (and (and (= var7 (newHeap (alloc var8 (O_TSLL var6)))) (= var5 (newAddr (alloc var8 (O_TSLL var6))))) (and (= var4 (write var7 var5 (O_TSLL (TSLL nullAddr (|TSLL::data| (getTSLL (read var7 var5))))))) (= var3 var5))) (and (= var2 (write var4 var3 (O_TSLL (TSLL (|TSLL::next| (getTSLL (read var4 var3))) 0)))) (= var1 var3))) (= var0 0)))) (inv_main1001_2 var2 var1 var1 var0))))
(assert (forall ((var0 Int) (var1 Addr) (var2 Addr) (var3 Int) (var4 Int) (var5 Addr) (var6 Addr) (var7 Addr) (var8 Addr) (var9 Heap) (var10 Heap) (var11 Int) (var12 Addr) (var13 Int) (var14 Addr) (var15 Addr) (var16 Heap)) (or (not (and (inv_main_34 var16 var15 var14 var13 var12) (and (and (not (= var11 1)) (and (and (and (and (and (= var10 var9) (= var8 var7)) (= var6 var5)) (= var4 var3)) (= var2 var1)) (= var11 (|TSLL::data| (getTSLL (read var9 var5)))))) (and (and (and (and (and (and (= var9 var16) (= var7 var15)) (= var5 var14)) (= var0 var13)) (= var1 var12)) (= var3 (|TSLL::data| (getTSLL (read var16 var14))))) (not (= var14 nullAddr)))))) (inv_main1062_12 var10 var8 var6 var4 var2))))
(assert (forall ((var0 Addr) (var1 Int) (var2 Int) (var3 Addr) (var4 Addr) (var5 Addr) (var6 Heap) (var7 Int) (var8 Int) (var9 Addr) (var10 Addr) (var11 Addr) (var12 Addr) (var13 Heap) (var14 Heap) (var15 Int) (var16 Int) (var17 Addr) (var18 Addr) (var19 Heap)) (or (not (and (inv_main_16 var19 var18 var17 var16) (and (and (not (= var15 1)) (and (and (and (and (= var14 var13) (= var12 var11)) (= var10 var9)) (= var8 var7)) (= var15 (|TSLL::data| (getTSLL (read var13 var9)))))) (and (and (and (and (and (= var13 var6) (= var11 var5)) (= var4 var3)) (= var7 var2)) (= var9 (|TSLL::next| (getTSLL (read var6 var3))))) (and (not (= var1 0)) (and (not (= var0 nullAddr)) (and (and (and (and (= var6 var19) (= var5 var18)) (= var3 var17)) (= var2 var16)) (= var0 (|TSLL::next| (getTSLL (read var19 var17))))))))))) (inv_main1036_12 var14 var12 var10 var8))))
(assert (forall ((var0 Int) (var1 Int) (var2 Int) (var3 Addr) (var4 Addr) (var5 Heap)) (or (not (and (inv_main1001_2 var5 var4 var3 var2) (and (and (not (= nullAddr var4)) (and (= var1 0) (not (= var2 0)))) (= var0 0)))) (inv_main_15 var5 var4 var4 var0))))
(assert (forall ((var0 Int) (var1 Int) (var2 Addr) (var3 Addr) (var4 Heap) (var5 Int) (var6 Addr) (var7 Addr) (var8 Heap) (var9 Addr) (var10 Int) (var11 Int) (var12 Addr) (var13 Addr) (var14 Heap) (var15 Int) (var16 Addr) (var17 Int) (var18 Int) (var19 Addr) (var20 Addr) (var21 Addr) (var22 Addr) (var23 Heap) (var24 Heap) (var25 Int) (var26 Addr) (var27 Addr) (var28 Heap)) (or (not (and (inv_main_15 var28 var27 var26 var25) (and (and (and (and (and (= var24 var23) (= var22 var21)) (= var20 var19)) (= var18 var17)) (= var16 (|TSLL::next| (getTSLL (read var23 var19))))) (and (and (= var15 0) (and (and (and (and (= var23 var14) (= var21 var13)) (= var19 var12)) (= var17 var11)) (= var15 (|TSLL::data| (getTSLL (read var14 var12)))))) (and (and (not (= var10 0)) (and (and (not (= var9 nullAddr)) (and (and (and (and (= var8 var28) (= var7 var27)) (= var6 var26)) (= var5 var25)) (= var9 (|TSLL::next| (getTSLL (read var28 var26)))))) (and (and (and (and (= var4 var8) (= var3 var7)) (= var2 var6)) (= var1 var5)) (= var0 (|TSLL::data| (getTSLL (read var8 (|TSLL::next| (getTSLL (read var8 var6)))))))))) (and (and (and (and (= var14 var4) (= var13 var3)) (= var12 var2)) (= var11 var1)) (or (and (= var0 0) (= var10 1)) (and (not (= var0 0)) (= var10 0))))))))) (inv_main_15 var24 var22 var16 var18))))
(assert (forall ((var0 Int) (var1 Addr) (var2 Int) (var3 Addr) (var4 Addr) (var5 Heap) (var6 Int) (var7 Addr) (var8 Int) (var9 Int) (var10 Addr) (var11 Addr) (var12 Heap) (var13 Addr) (var14 Int) (var15 Addr) (var16 Addr) (var17 Heap) (var18 Int) (var19 Addr) (var20 Addr) (var21 Addr) (var22 Int) (var23 Int) (var24 Addr) (var25 Addr) (var26 Addr) (var27 Addr) (var28 Heap) (var29 Heap) (var30 Addr) (var31 Int) (var32 Addr) (var33 Addr) (var34 Heap)) (or (not (and (inv_main_33 var34 var33 var32 var31 var30) (and (and (and (and (and (and (= var29 var28) (= var27 var26)) (= var25 var24)) (= var23 var22)) (= var21 var20)) (= var19 (|TSLL::next| (getTSLL (read var28 var24))))) (and (= var22 0) (and (and (= var18 0) (and (and (and (and (and (= var28 var17) (= var26 var16)) (= var24 var15)) (= var22 var14)) (= var20 var13)) (= var18 (|TSLL::data| (getTSLL (read var17 var15)))))) (and (and (and (and (and (and (= var17 var12) (= var16 var11)) (= var15 var10)) (= var9 var8)) (= var13 var7)) (= var14 (|TSLL::data| (getTSLL (read var12 var10))))) (and (and (not (= var6 0)) (and (not (= var32 nullAddr)) (and (and (and (and (and (= var5 var34) (= var4 var33)) (= var3 var32)) (= var2 var31)) (= var1 var30)) (= var0 (|TSLL::data| (getTSLL (read var34 var32))))))) (and (and (and (and (and (= var12 var5) (= var11 var4)) (= var10 var3)) (= var8 var2)) (= var7 var1)) (or (and (not (= var0 1)) (= var6 1)) (and (= var0 1) (= var6 0))))))))))) (inv_main_33 var29 var27 var19 var23 var21))))
(assert (forall ((var0 Int) (var1 Addr) (var2 Addr) (var3 Int) (var4 Addr) (var5 Addr) (var6 Heap) (var7 Addr) (var8 Int) (var9 Addr) (var10 Addr) (var11 Heap) (var12 Addr) (var13 Int) (var14 Int) (var15 Addr) (var16 Addr) (var17 Addr) (var18 Addr) (var19 TSLL) (var20 Heap) (var21 Heap) (var22 Addr) (var23 Addr) (var24 Int) (var25 Int) (var26 Addr) (var27 Addr) (var28 Addr) (var29 Addr) (var30 Heap) (var31 Heap) (var32 Addr) (var33 Int) (var34 Addr) (var35 Addr) (var36 Heap)) (or (not (and (inv_main_16 var36 var35 var34 var33) (and (and (and (and (and (and (= var32 nullAddr) (and (and (and (and (and (= var31 var30) (= var29 var28)) (= var27 var26)) (= var25 var24)) (= var23 var22)) (= var32 (|TSLL::next| (getTSLL (read var30 var26)))))) (and (and (and (and (and (= var21 (newHeap (alloc var20 (O_TSLL var19)))) (= var18 var17)) (= var16 var15)) (= var14 var13)) (= var12 (newAddr (alloc var20 (O_TSLL var19))))) (and (and (and (and (= var11 (write var21 var12 (O_TSLL (TSLL (|TSLL::next| (getTSLL (read var21 var12))) 1)))) (= var10 var18)) (= var9 var16)) (= var8 var14)) (= var7 var12)))) (and (and (and (and (= var30 (write var11 var7 (O_TSLL (TSLL nullAddr (|TSLL::data| (getTSLL (read var11 var7))))))) (= var28 var10)) (= var26 var9)) (= var24 var8)) (= var22 var7))) (and (and (and (and (= var6 (write var31 var27 (O_TSLL (TSLL var23 (|TSLL::data| (getTSLL (read var31 var27))))))) (= var5 var29)) (= var4 var27)) (= var3 var25)) (= var2 var23))) (and (= var1 nullAddr) (and (and (and (and (= var20 var36) (= var17 var35)) (= var15 var34)) (= var13 var33)) (= var1 (|TSLL::next| (getTSLL (read var36 var34))))))) (= var0 0)))) (inv_main_33 var6 var5 var5 var0 var2))))
(assert (forall ((var0 Int) (var1 Addr) (var2 Addr) (var3 Int) (var4 Addr) (var5 Addr) (var6 Heap) (var7 Addr) (var8 Int) (var9 Addr) (var10 Addr) (var11 Heap) (var12 Addr) (var13 Int) (var14 Addr) (var15 Addr) (var16 Heap) (var17 Addr) (var18 Int) (var19 Int) (var20 Addr) (var21 Addr) (var22 Addr) (var23 Addr) (var24 TSLL) (var25 Heap) (var26 Heap) (var27 Addr) (var28 Int) (var29 Addr) (var30 Addr) (var31 Heap) (var32 Addr) (var33 Addr) (var34 Addr) (var35 Addr) (var36 Int) (var37 Int) (var38 Addr) (var39 Addr) (var40 Addr) (var41 Addr) (var42 Heap) (var43 Heap) (var44 Int) (var45 Addr) (var46 Addr) (var47 Heap)) (or (not (and (inv_main_16 var47 var46 var45 var44) (and (and (and (and (and (and (and (and (and (and (= var43 var42) (= var41 var40)) (= var39 var38)) (= var37 var36)) (= var35 var34)) (= var33 (|TSLL::next| (getTSLL (read var42 var38))))) (and (and (and (not (= var32 nullAddr)) (and (and (and (and (and (= var42 var31) (= var40 var30)) (= var38 var29)) (= var36 var28)) (= var34 var27)) (= var32 (|TSLL::next| (getTSLL (read var31 var29)))))) (and (and (and (and (and (= var26 (newHeap (alloc var25 (O_TSLL var24)))) (= var23 var22)) (= var21 var20)) (= var19 var18)) (= var17 (newAddr (alloc var25 (O_TSLL var24))))) (and (and (and (and (= var16 (write var26 var17 (O_TSLL (TSLL (|TSLL::next| (getTSLL (read var26 var17))) 1)))) (= var15 var23)) (= var14 var21)) (= var13 var19)) (= var12 var17)))) (and (and (and (and (= var31 (write var16 var12 (O_TSLL (TSLL nullAddr (|TSLL::data| (getTSLL (read var16 var12))))))) (= var30 var15)) (= var29 var14)) (= var28 var13)) (= var27 var12)))) (and (and (and (and (= var11 (write var43 var35 (O_TSLL (TSLL var33 (|TSLL::data| (getTSLL (read var43 var35))))))) (= var10 var41)) (= var9 var39)) (= var8 var37)) (= var7 var35))) (and (and (and (and (= var6 (write var11 var9 (O_TSLL (TSLL var7 (|TSLL::data| (getTSLL (read var11 var9))))))) (= var5 var10)) (= var4 var9)) (= var3 var8)) (= var2 var7))) (and (= var1 nullAddr) (and (and (and (and (= var25 var47) (= var22 var46)) (= var20 var45)) (= var18 var44)) (= var1 (|TSLL::next| (getTSLL (read var47 var45))))))) (= var0 0)))) (inv_main_33 var6 var5 var5 var0 var2))))
(assert (forall ((var0 Int) (var1 Addr) (var2 Int) (var3 Addr) (var4 Int) (var5 Addr) (var6 Addr) (var7 Heap) (var8 Addr) (var9 Int) (var10 Addr) (var11 Addr) (var12 Heap) (var13 Addr) (var14 Int) (var15 Int) (var16 Addr) (var17 Addr) (var18 Addr) (var19 Addr) (var20 TSLL) (var21 Heap) (var22 Heap) (var23 Addr) (var24 Addr) (var25 Int) (var26 Int) (var27 Addr) (var28 Addr) (var29 Addr) (var30 Addr) (var31 Heap) (var32 Heap) (var33 Addr) (var34 Int) (var35 Addr) (var36 Addr) (var37 Heap)) (or (not (and (inv_main_16 var37 var36 var35 var34) (and (and (and (and (and (and (= var33 nullAddr) (and (and (and (and (and (= var32 var31) (= var30 var29)) (= var28 var27)) (= var26 var25)) (= var24 var23)) (= var33 (|TSLL::next| (getTSLL (read var31 var27)))))) (and (and (and (and (and (= var22 (newHeap (alloc var21 (O_TSLL var20)))) (= var19 var18)) (= var17 var16)) (= var15 var14)) (= var13 (newAddr (alloc var21 (O_TSLL var20))))) (and (and (and (and (= var12 (write var22 var13 (O_TSLL (TSLL (|TSLL::next| (getTSLL (read var22 var13))) 1)))) (= var11 var19)) (= var10 var17)) (= var9 var15)) (= var8 var13)))) (and (and (and (and (= var31 (write var12 var8 (O_TSLL (TSLL nullAddr (|TSLL::data| (getTSLL (read var12 var8))))))) (= var29 var11)) (= var27 var10)) (= var25 var9)) (= var23 var8))) (and (and (and (and (= var7 (write var32 var28 (O_TSLL (TSLL var24 (|TSLL::data| (getTSLL (read var32 var28))))))) (= var6 var30)) (= var5 var28)) (= var4 var26)) (= var3 var24))) (and (= var2 0) (and (not (= var1 nullAddr)) (and (and (and (and (= var21 var37) (= var18 var36)) (= var16 var35)) (= var14 var34)) (= var1 (|TSLL::next| (getTSLL (read var37 var35)))))))) (= var0 0)))) (inv_main_33 var7 var6 var6 var0 var3))))
(assert (forall ((var0 Int) (var1 Addr) (var2 Int) (var3 Addr) (var4 Int) (var5 Addr) (var6 Addr) (var7 Heap) (var8 Addr) (var9 Int) (var10 Addr) (var11 Addr) (var12 Heap) (var13 Addr) (var14 Int) (var15 Addr) (var16 Addr) (var17 Heap) (var18 Addr) (var19 Int) (var20 Int) (var21 Addr) (var22 Addr) (var23 Addr) (var24 Addr) (var25 TSLL) (var26 Heap) (var27 Heap) (var28 Addr) (var29 Int) (var30 Addr) (var31 Addr) (var32 Heap) (var33 Addr) (var34 Addr) (var35 Addr) (var36 Addr) (var37 Int) (var38 Int) (var39 Addr) (var40 Addr) (var41 Addr) (var42 Addr) (var43 Heap) (var44 Heap) (var45 Int) (var46 Addr) (var47 Addr) (var48 Heap)) (or (not (and (inv_main_16 var48 var47 var46 var45) (and (and (and (and (and (and (and (and (and (and (= var44 var43) (= var42 var41)) (= var40 var39)) (= var38 var37)) (= var36 var35)) (= var34 (|TSLL::next| (getTSLL (read var43 var39))))) (and (and (and (not (= var33 nullAddr)) (and (and (and (and (and (= var43 var32) (= var41 var31)) (= var39 var30)) (= var37 var29)) (= var35 var28)) (= var33 (|TSLL::next| (getTSLL (read var32 var30)))))) (and (and (and (and (and (= var27 (newHeap (alloc var26 (O_TSLL var25)))) (= var24 var23)) (= var22 var21)) (= var20 var19)) (= var18 (newAddr (alloc var26 (O_TSLL var25))))) (and (and (and (and (= var17 (write var27 var18 (O_TSLL (TSLL (|TSLL::next| (getTSLL (read var27 var18))) 1)))) (= var16 var24)) (= var15 var22)) (= var14 var20)) (= var13 var18)))) (and (and (and (and (= var32 (write var17 var13 (O_TSLL (TSLL nullAddr (|TSLL::data| (getTSLL (read var17 var13))))))) (= var31 var16)) (= var30 var15)) (= var29 var14)) (= var28 var13)))) (and (and (and (and (= var12 (write var44 var36 (O_TSLL (TSLL var34 (|TSLL::data| (getTSLL (read var44 var36))))))) (= var11 var42)) (= var10 var40)) (= var9 var38)) (= var8 var36))) (and (and (and (and (= var7 (write var12 var10 (O_TSLL (TSLL var8 (|TSLL::data| (getTSLL (read var12 var10))))))) (= var6 var11)) (= var5 var10)) (= var4 var9)) (= var3 var8))) (and (= var2 0) (and (not (= var1 nullAddr)) (and (and (and (and (= var26 var48) (= var23 var47)) (= var21 var46)) (= var19 var45)) (= var1 (|TSLL::next| (getTSLL (read var48 var46)))))))) (= var0 0)))) (inv_main_33 var7 var6 var6 var0 var3))))
(assert (forall ((var0 Int) (var1 Addr) (var2 Addr) (var3 Heap)) (not (inv_main1024_11 var3 var2 var1 var0))))
(assert (forall ((var0 Int) (var1 Addr) (var2 Addr) (var3 Heap)) (not (inv_main1029_12 var3 var2 var1 var0))))
(assert (forall ((var0 Int) (var1 Addr) (var2 Addr) (var3 Heap)) (not (inv_main1036_12 var3 var2 var1 var0))))
(assert (forall ((var0 Addr) (var1 Int) (var2 Addr) (var3 Addr) (var4 Heap)) (not (inv_main1055_12 var4 var3 var2 var1 var0))))
(assert (forall ((var0 Addr) (var1 Int) (var2 Addr) (var3 Addr) (var4 Heap)) (not (inv_main1056_12 var4 var3 var2 var1 var0))))
(assert (forall ((var0 Addr) (var1 Int) (var2 Addr) (var3 Addr) (var4 Heap)) (not (inv_main1062_12 var4 var3 var2 var1 var0))))
(assert (forall ((var0 Addr) (var1 Int) (var2 Addr) (var3 Addr) (var4 Heap)) (not (inv_main1063_12 var4 var3 var2 var1 var0))))
(check-sat)
